SAT
-65 -92 22 96 78 54 -21 45 99 52 10 71 -73 70 43 -13 -8 -74 -88 48 86 30 57 -82 84 91 49 -26 93 -6 -61 7 63 58 -64 15 -69 -5 44 -75 -53 -95 42 19 32 -81 -94 -40 60 37 51 72 -87 27 -36 14 31 29 -47 -66 20 -16 -25 -67 -50 -39 11 23 -34 35 41 100 46 97 -38 -17 28 -1 -79 76 9 80 -18 -4 77 -3 62 -33 2 -56 89 83 24 -85 -12 55 98 59 -68 -90 0
